
50
12705

683 683
92 92
618 618
842 842
835 835
516 516
632 632
370 370
529 529
108 108
683 683
601 601
282 282
379 379
737 737
444 444
960 960
972 972
839 839
92 92
76 76
289 289
362 362
705 705
827 827
563 563
640 640
574 574
35 35
527 527
214 214
417 417
9 9
656 656
911 911
69 69
581 581
24 24
352 352
160 160
861 861
729 729
897 897
218 218
719 719
700 700
511 511
917 917
625 625
283 283
